p edge 20 100 10
v 1 5
v 2 1 11
v 3 3 12 13
v 1 16
v 3 15 19 20
v 1 17
v 4 6 9 14 18
v 1 2
v 2 7 8
v 2 4 10
e 1 2
e 1 3
e 1 6
e 1 7
e 1 8
e 1 10
e 1 11
e 1 13
e 1 14
e 1 16
e 1 18
e 1 19
e 2 3
e 2 5
e 2 8
e 2 11
e 2 12
e 2 13
e 2 17
e 2 18
e 2 19
e 2 20
e 3 5
e 3 6
e 3 11
e 3 14
e 3 15
e 3 16
e 3 18
e 3 20
e 4 5
e 4 7
e 4 8
e 4 13
e 4 15
e 4 19
e 4 20
e 5 6
e 5 9
e 5 14
e 5 15
e 5 16
e 5 17
e 5 18
e 5 19
e 6 8
e 6 9
e 6 10
e 6 13
e 6 14
e 6 15
e 6 16
e 6 18
e 7 12
e 7 14
e 7 15
e 7 17
e 7 19
e 7 20
e 8 10
e 8 13
e 8 17
e 8 20
e 9 10
e 9 12
e 9 13
e 9 15
e 9 17
e 9 18
e 9 19
e 10 11
e 10 12
e 10 16
e 10 17
e 10 18
e 11 12
e 11 14
e 11 15
e 11 18
e 12 13
e 12 14
e 12 17
e 12 18
e 12 19
e 12 20
e 13 14
e 13 17
e 13 18
e 13 19
e 14 17
e 14 18
e 14 19
e 14 20
e 15 18
e 15 19
e 15 20
e 16 17
e 16 18
e 17 18
e 17 20
